data;

param w := 30;
param n := 28;
param min_h := 60;
param max_h := 103;

set BLOCKS := 1 2 3 4 5 6 7 8 9 10 11 12 13 14 15 16 17 18 19 20 21 22 23 24 25 26 27 28 ;

param:	width	height :=
	1	9	24
	2	14	14
	3	12	14
	4	12	13
	5	9	17
	6	9	11
	7	4	24
	8	8	9
	9	9	8
	10	4	17
	11	12	5
	12	6	9
	13	3	18
	14	3	16
	15	3	14
	16	3	12
	17	4	8
	18	2	14
	19	2	13
	20	8	3
	21	12	2
	22	3	6
	23	6	3
	24	3	5
	25	2	5
	26	1	6
	27	1	5
	28	2	2;